p wcnf 173 204 205 
1 76 15 0 
1 159 12 0 
1 -124 -94 0 
1 167 -94 0 
1 -103 -96 0 
1 81 -145 0 
1 -10 -9 0 
1 -93 146 0 
1 24 18 0 
1 101 -127 0 
1 150 130 0 
1 -90 92 0 
1 94 -89 0 
1 -69 10 0 
1 -49 166 0 
1 -63 -97 0 
1 -140 -55 0 
1 -46 -32 0 
1 -73 -141 0 
1 -85 -116 0 
1 152 81 0 
1 -58 66 0 
1 -127 96 0 
1 57 -34 0 
1 -42 39 0 
1 104 -171 0 
1 53 35 0 
1 -37 57 0 
1 -133 -150 0 
1 -11 70 0 
1 44 -109 0 
1 -58 71 0 
1 -32 -30 0 
1 155 11 0 
1 -35 87 0 
1 -98 -49 0 
1 -149 24 0 
1 131 10 0 
1 -118 47 0 
1 80 50 0 
1 -76 -99 0 
1 24 -4 0 
1 -53 16 0 
1 54 36 0 
1 -66 -158 0 
1 -129 -92 0 
1 77 -38 0 
1 -68 98 0 
1 70 4 0 
1 150 -82 0 
1 18 -134 0 
1 63 80 0 
1 -49 98 0 
1 -128 160 0 
1 125 -99 0 
1 166 47 0 
1 140 39 0 
1 107 -14 0 
1 -74 -20 0 
1 84 -11 0 
1 63 -62 0 
1 -38 -53 0 
1 -142 77 0 
1 -98 -171 0 
1 2 -120 0 
1 72 -163 0 
1 -153 148 0 
1 120 -169 0 
1 12 -172 0 
1 69 -126 0 
1 -102 40 0 
1 -99 -41 0 
1 -56 -123 0 
1 -85 -35 0 
1 -120 22 0 
1 29 86 0 
1 171 -1 0 
1 146 -36 0 
1 -133 -150 0 
1 134 3 0 
1 -120 -105 0 
1 171 27 0 
1 138 104 0 
1 -57 -88 0 
1 9 65 0 
1 26 -166 0 
1 155 114 0 
1 164 -112 0 
1 143 -53 0 
1 63 -92 0 
1 5 20 0 
1 9 -10 0 
1 91 122 0 
1 -63 -22 0 
1 -160 -173 0 
1 138 51 0 
1 -104 -14 0 
1 -31 101 0 
1 46 124 0 
1 30 26 0 
1 -156 40 0 
1 -49 48 0 
1 -148 20 0 
1 -127 74 0 
1 -142 123 0 
1 -19 -90 0 
1 -155 18 0 
1 106 -64 0 
1 119 -36 0 
1 108 -37 0 
1 82 -133 0 
1 -68 -87 0 
1 -120 165 0 
1 -125 -12 0 
1 -129 4 0 
1 21 -148 0 
1 5 -159 0 
1 -25 35 0 
1 -113 54 0 
1 -128 -77 0 
1 -10 -143 0 
1 117 -92 0 
1 -149 82 0 
1 -15 125 0 
1 138 86 0 
1 12 111 0 
1 167 156 0 
1 9 -121 0 
1 22 -130 0 
1 -88 143 0 
1 -107 -10 0 
1 65 170 0 
1 -64 -100 0 
1 -133 58 0 
1 51 -110 0 
1 71 -52 0 
1 -58 -42 0 
1 63 44 0 
1 96 -171 0 
1 -94 -64 0 
1 173 120 0 
1 152 45 0 
1 -146 66 0 
1 -24 -131 0 
1 58 -17 0 
1 -31 -108 0 
1 -88 -47 0 
1 105 47 0 
1 -7 25 0 
1 35 129 0 
1 -66 125 0 
1 32 -124 0 
1 -84 42 0 
1 63 -107 0 
1 -29 -173 0 
1 94 -113 0 
1 122 112 0 
1 -124 143 0 
1 -118 -66 0 
1 -159 -161 0 
1 -8 -2 0 
1 -167 -81 0 
1 -8 -124 0 
1 -130 105 0 
1 112 -106 0 
1 18 -138 0 
1 59 167 0 
1 -5 128 0 
1 -142 25 0 
1 -172 145 0 
1 -110 129 0 
1 35 -130 0 
1 -15 136 0 
1 -155 118 0 
1 -46 -148 0 
1 -19 -131 0 
1 -143 152 0 
1 6 139 0 
1 -103 28 0 
1 -57 -132 0 
1 -86 170 0 
1 -151 160 0 
1 46 -69 0 
1 -100 50 0 
1 11 -135 0 
1 88 -71 0 
1 -9 -82 0 
1 57 -142 0 
1 -19 -132 0 
1 -9 127 0 
1 -132 -77 0 
1 102 -21 0 
1 32 -163 0 
1 -165 69 0 
1 -68 128 0 
1 26 -70 0 
1 -11 -44 0 
1 161 136 0 
1 114 126 0 
1 125 138 0 
1 3 155 0 
1 -113 -146 0 
1 -60 -48 0 
1 79 -157 0 
